n_machines = 3;
n_resources = 5;
n_jobs = 50;
horizon = 247;
LB = 82;
n_jobs_per_resource = [10, 10, 10, 10, 10];
duration = [9, 1, 2, 4, 6, 5, 5, 3, 3, 3, 2, 2, 9, 4, 4, 8, 5, 2, 5, 3, 5, 3, 9, 5, 9, 7, 4, 4, 4, 3, 9, 9, 8, 6, 1, 9, 7, 3, 2, 1, 9, 4, 4, 3, 3, 8, 8, 6, 2, 7]